c 
c U(n,d) graph
c graph gen seed     : 2879
c number of vertices : 20
c max number of edges: 400
c Euclidean distance : 0.600000
c data structure     : dense
c
c           Graph Stats
c number of vertices  : 20
c nonisolated vertices: 20
c number of edges     : 90
c edge density        : 0.473684
c max degree          : 16
c avg degree          : 9.00
c min degree          : 5
p col 20 90
e 1 3
e 1 8
e 1 11
e 1 12
e 1 18
e 1 19
e 2 4
e 2 5
e 2 6
e 2 7
e 2 10
e 2 12
e 2 15
e 2 16
e 2 17
e 2 20
e 3 8
e 3 11
e 3 12
e 3 14
e 3 18
e 3 19
e 4 5
e 4 6
e 4 7
e 4 9
e 4 10
e 4 12
e 4 13
e 4 15
e 4 16
e 4 17
e 4 20
e 5 6
e 5 10
e 5 12
e 5 15
e 5 17
e 5 20
e 6 7
e 6 9
e 6 10
e 6 12
e 6 13
e 6 14
e 6 16
e 6 18
e 6 19
e 6 20
e 7 9
e 7 10
e 7 12
e 7 13
e 7 14
e 7 16
e 7 18
e 7 19
e 8 11
e 8 12
e 8 20
e 9 10
e 9 13
e 9 14
e 9 16
e 10 12
e 10 13
e 10 15
e 10 16
e 10 17
e 10 20
e 11 12
e 11 18
e 11 19
e 12 15
e 12 16
e 12 17
e 12 18
e 12 19
e 12 20
e 13 14
e 13 16
e 14 16
e 14 18
e 14 19
e 15 17
e 15 20
e 16 18
e 16 19
e 17 20
e 18 19
